591,406
841,487
808,533
178,485
654,353
1095,471
1155,481
921,528
880,470
972,617
948,542
921,528
841,487
852,461
778,336
681,706
858,753
972,617
1051,526
1166,563
1155,481
1020,67
778,336
695,318
523,624
598,662
738,388
765,939
598,662
415,364
591,406
874,672
858,753
874,672
